SAT/1978347_15.param
$ LBS instance with n = 15, seed = 1978347
letting cards be [19,9,10,21,4,11,15,18,32,29,40,12,0,16,14]
